c at-most-two of 11 pidgeon in 5 holes
c p1@1 1
c p2@1 2
c p3@1 3
c p4@1 4
c p5@1 5
c p6@1 6
c p7@1 7
c p8@1 8
c p9@1 9
c p10@1 10
c p11@1 11
c p1@2 12
c p2@2 13
c p3@2 14
c p4@2 15
c p5@2 16
c p6@2 17
c p7@2 18
c p8@2 19
c p9@2 20
c p10@2 21
c p11@2 22
c p1@3 23
c p2@3 24
c p3@3 25
c p4@3 26
c p5@3 27
c p6@3 28
c p7@3 29
c p8@3 30
c p9@3 31
c p10@3 32
c p11@3 33
c p1@4 34
c p2@4 35
c p3@4 36
c p4@4 37
c p5@4 38
c p6@4 39
c p7@4 40
c p8@4 41
c p9@4 42
c p10@4 43
c p11@4 44
c p1@5 45
c p2@5 46
c p3@5 47
c p4@5 48
c p5@5 49
c p6@5 50
c p7@5 51
c p8@5 52
c p9@5 53
c p10@5 54
c p11@5 55
p cnf 55 836
-1 -2 -3 0
-1 -2 -4 0
-1 -2 -5 0
-1 -2 -6 0
-1 -2 -7 0
-1 -2 -8 0
-1 -2 -9 0
-1 -2 -10 0
-1 -2 -11 0
-1 -3 -4 0
-1 -3 -5 0
-1 -3 -6 0
-1 -3 -7 0
-1 -3 -8 0
-1 -3 -9 0
-1 -3 -10 0
-1 -3 -11 0
-1 -4 -5 0
-1 -4 -6 0
-1 -4 -7 0
-1 -4 -8 0
-1 -4 -9 0
-1 -4 -10 0
-1 -4 -11 0
-1 -5 -6 0
-1 -5 -7 0
-1 -5 -8 0
-1 -5 -9 0
-1 -5 -10 0
-1 -5 -11 0
-1 -6 -7 0
-1 -6 -8 0
-1 -6 -9 0
-1 -6 -10 0
-1 -6 -11 0
-1 -7 -8 0
-1 -7 -9 0
-1 -7 -10 0
-1 -7 -11 0
-1 -8 -9 0
-1 -8 -10 0
-1 -8 -11 0
-1 -9 -10 0
-1 -9 -11 0
-1 -10 -11 0
-2 -3 -4 0
-2 -3 -5 0
-2 -3 -6 0
-2 -3 -7 0
-2 -3 -8 0
-2 -3 -9 0
-2 -3 -10 0
-2 -3 -11 0
-2 -4 -5 0
-2 -4 -6 0
-2 -4 -7 0
-2 -4 -8 0
-2 -4 -9 0
-2 -4 -10 0
-2 -4 -11 0
-2 -5 -6 0
-2 -5 -7 0
-2 -5 -8 0
-2 -5 -9 0
-2 -5 -10 0
-2 -5 -11 0
-2 -6 -7 0
-2 -6 -8 0
-2 -6 -9 0
-2 -6 -10 0
-2 -6 -11 0
-2 -7 -8 0
-2 -7 -9 0
-2 -7 -10 0
-2 -7 -11 0
-2 -8 -9 0
-2 -8 -10 0
-2 -8 -11 0
-2 -9 -10 0
-2 -9 -11 0
-2 -10 -11 0
-3 -4 -5 0
-3 -4 -6 0
-3 -4 -7 0
-3 -4 -8 0
-3 -4 -9 0
-3 -4 -10 0
-3 -4 -11 0
-3 -5 -6 0
-3 -5 -7 0
-3 -5 -8 0
-3 -5 -9 0
-3 -5 -10 0
-3 -5 -11 0
-3 -6 -7 0
-3 -6 -8 0
-3 -6 -9 0
-3 -6 -10 0
-3 -6 -11 0
-3 -7 -8 0
-3 -7 -9 0
-3 -7 -10 0
-3 -7 -11 0
-3 -8 -9 0
-3 -8 -10 0
-3 -8 -11 0
-3 -9 -10 0
-3 -9 -11 0
-3 -10 -11 0
-4 -5 -6 0
-4 -5 -7 0
-4 -5 -8 0
-4 -5 -9 0
-4 -5 -10 0
-4 -5 -11 0
-4 -6 -7 0
-4 -6 -8 0
-4 -6 -9 0
-4 -6 -10 0
-4 -6 -11 0
-4 -7 -8 0
-4 -7 -9 0
-4 -7 -10 0
-4 -7 -11 0
-4 -8 -9 0
-4 -8 -10 0
-4 -8 -11 0
-4 -9 -10 0
-4 -9 -11 0
-4 -10 -11 0
-5 -6 -7 0
-5 -6 -8 0
-5 -6 -9 0
-5 -6 -10 0
-5 -6 -11 0
-5 -7 -8 0
-5 -7 -9 0
-5 -7 -10 0
-5 -7 -11 0
-5 -8 -9 0
-5 -8 -10 0
-5 -8 -11 0
-5 -9 -10 0
-5 -9 -11 0
-5 -10 -11 0
-6 -7 -8 0
-6 -7 -9 0
-6 -7 -10 0
-6 -7 -11 0
-6 -8 -9 0
-6 -8 -10 0
-6 -8 -11 0
-6 -9 -10 0
-6 -9 -11 0
-6 -10 -11 0
-7 -8 -9 0
-7 -8 -10 0
-7 -8 -11 0
-7 -9 -10 0
-7 -9 -11 0
-7 -10 -11 0
-8 -9 -10 0
-8 -9 -11 0
-8 -10 -11 0
-9 -10 -11 0
-12 -13 -14 0
-12 -13 -15 0
-12 -13 -16 0
-12 -13 -17 0
-12 -13 -18 0
-12 -13 -19 0
-12 -13 -20 0
-12 -13 -21 0
-12 -13 -22 0
-12 -14 -15 0
-12 -14 -16 0
-12 -14 -17 0
-12 -14 -18 0
-12 -14 -19 0
-12 -14 -20 0
-12 -14 -21 0
-12 -14 -22 0
-12 -15 -16 0
-12 -15 -17 0
-12 -15 -18 0
-12 -15 -19 0
-12 -15 -20 0
-12 -15 -21 0
-12 -15 -22 0
-12 -16 -17 0
-12 -16 -18 0
-12 -16 -19 0
-12 -16 -20 0
-12 -16 -21 0
-12 -16 -22 0
-12 -17 -18 0
-12 -17 -19 0
-12 -17 -20 0
-12 -17 -21 0
-12 -17 -22 0
-12 -18 -19 0
-12 -18 -20 0
-12 -18 -21 0
-12 -18 -22 0
-12 -19 -20 0
-12 -19 -21 0
-12 -19 -22 0
-12 -20 -21 0
-12 -20 -22 0
-12 -21 -22 0
-13 -14 -15 0
-13 -14 -16 0
-13 -14 -17 0
-13 -14 -18 0
-13 -14 -19 0
-13 -14 -20 0
-13 -14 -21 0
-13 -14 -22 0
-13 -15 -16 0
-13 -15 -17 0
-13 -15 -18 0
-13 -15 -19 0
-13 -15 -20 0
-13 -15 -21 0
-13 -15 -22 0
-13 -16 -17 0
-13 -16 -18 0
-13 -16 -19 0
-13 -16 -20 0
-13 -16 -21 0
-13 -16 -22 0
-13 -17 -18 0
-13 -17 -19 0
-13 -17 -20 0
-13 -17 -21 0
-13 -17 -22 0
-13 -18 -19 0
-13 -18 -20 0
-13 -18 -21 0
-13 -18 -22 0
-13 -19 -20 0
-13 -19 -21 0
-13 -19 -22 0
-13 -20 -21 0
-13 -20 -22 0
-13 -21 -22 0
-14 -15 -16 0
-14 -15 -17 0
-14 -15 -18 0
-14 -15 -19 0
-14 -15 -20 0
-14 -15 -21 0
-14 -15 -22 0
-14 -16 -17 0
-14 -16 -18 0
-14 -16 -19 0
-14 -16 -20 0
-14 -16 -21 0
-14 -16 -22 0
-14 -17 -18 0
-14 -17 -19 0
-14 -17 -20 0
-14 -17 -21 0
-14 -17 -22 0
-14 -18 -19 0
-14 -18 -20 0
-14 -18 -21 0
-14 -18 -22 0
-14 -19 -20 0
-14 -19 -21 0
-14 -19 -22 0
-14 -20 -21 0
-14 -20 -22 0
-14 -21 -22 0
-15 -16 -17 0
-15 -16 -18 0
-15 -16 -19 0
-15 -16 -20 0
-15 -16 -21 0
-15 -16 -22 0
-15 -17 -18 0
-15 -17 -19 0
-15 -17 -20 0
-15 -17 -21 0
-15 -17 -22 0
-15 -18 -19 0
-15 -18 -20 0
-15 -18 -21 0
-15 -18 -22 0
-15 -19 -20 0
-15 -19 -21 0
-15 -19 -22 0
-15 -20 -21 0
-15 -20 -22 0
-15 -21 -22 0
-16 -17 -18 0
-16 -17 -19 0
-16 -17 -20 0
-16 -17 -21 0
-16 -17 -22 0
-16 -18 -19 0
-16 -18 -20 0
-16 -18 -21 0
-16 -18 -22 0
-16 -19 -20 0
-16 -19 -21 0
-16 -19 -22 0
-16 -20 -21 0
-16 -20 -22 0
-16 -21 -22 0
-17 -18 -19 0
-17 -18 -20 0
-17 -18 -21 0
-17 -18 -22 0
-17 -19 -20 0
-17 -19 -21 0
-17 -19 -22 0
-17 -20 -21 0
-17 -20 -22 0
-17 -21 -22 0
-18 -19 -20 0
-18 -19 -21 0
-18 -19 -22 0
-18 -20 -21 0
-18 -20 -22 0
-18 -21 -22 0
-19 -20 -21 0
-19 -20 -22 0
-19 -21 -22 0
-20 -21 -22 0
-23 -24 -25 0
-23 -24 -26 0
-23 -24 -27 0
-23 -24 -28 0
-23 -24 -29 0
-23 -24 -30 0
-23 -24 -31 0
-23 -24 -32 0
-23 -24 -33 0
-23 -25 -26 0
-23 -25 -27 0
-23 -25 -28 0
-23 -25 -29 0
-23 -25 -30 0
-23 -25 -31 0
-23 -25 -32 0
-23 -25 -33 0
-23 -26 -27 0
-23 -26 -28 0
-23 -26 -29 0
-23 -26 -30 0
-23 -26 -31 0
-23 -26 -32 0
-23 -26 -33 0
-23 -27 -28 0
-23 -27 -29 0
-23 -27 -30 0
-23 -27 -31 0
-23 -27 -32 0
-23 -27 -33 0
-23 -28 -29 0
-23 -28 -30 0
-23 -28 -31 0
-23 -28 -32 0
-23 -28 -33 0
-23 -29 -30 0
-23 -29 -31 0
-23 -29 -32 0
-23 -29 -33 0
-23 -30 -31 0
-23 -30 -32 0
-23 -30 -33 0
-23 -31 -32 0
-23 -31 -33 0
-23 -32 -33 0
-24 -25 -26 0
-24 -25 -27 0
-24 -25 -28 0
-24 -25 -29 0
-24 -25 -30 0
-24 -25 -31 0
-24 -25 -32 0
-24 -25 -33 0
-24 -26 -27 0
-24 -26 -28 0
-24 -26 -29 0
-24 -26 -30 0
-24 -26 -31 0
-24 -26 -32 0
-24 -26 -33 0
-24 -27 -28 0
-24 -27 -29 0
-24 -27 -30 0
-24 -27 -31 0
-24 -27 -32 0
-24 -27 -33 0
-24 -28 -29 0
-24 -28 -30 0
-24 -28 -31 0
-24 -28 -32 0
-24 -28 -33 0
-24 -29 -30 0
-24 -29 -31 0
-24 -29 -32 0
-24 -29 -33 0
-24 -30 -31 0
-24 -30 -32 0
-24 -30 -33 0
-24 -31 -32 0
-24 -31 -33 0
-24 -32 -33 0
-25 -26 -27 0
-25 -26 -28 0
-25 -26 -29 0
-25 -26 -30 0
-25 -26 -31 0
-25 -26 -32 0
-25 -26 -33 0
-25 -27 -28 0
-25 -27 -29 0
-25 -27 -30 0
-25 -27 -31 0
-25 -27 -32 0
-25 -27 -33 0
-25 -28 -29 0
-25 -28 -30 0
-25 -28 -31 0
-25 -28 -32 0
-25 -28 -33 0
-25 -29 -30 0
-25 -29 -31 0
-25 -29 -32 0
-25 -29 -33 0
-25 -30 -31 0
-25 -30 -32 0
-25 -30 -33 0
-25 -31 -32 0
-25 -31 -33 0
-25 -32 -33 0
-26 -27 -28 0
-26 -27 -29 0
-26 -27 -30 0
-26 -27 -31 0
-26 -27 -32 0
-26 -27 -33 0
-26 -28 -29 0
-26 -28 -30 0
-26 -28 -31 0
-26 -28 -32 0
-26 -28 -33 0
-26 -29 -30 0
-26 -29 -31 0
-26 -29 -32 0
-26 -29 -33 0
-26 -30 -31 0
-26 -30 -32 0
-26 -30 -33 0
-26 -31 -32 0
-26 -31 -33 0
-26 -32 -33 0
-27 -28 -29 0
-27 -28 -30 0
-27 -28 -31 0
-27 -28 -32 0
-27 -28 -33 0
-27 -29 -30 0
-27 -29 -31 0
-27 -29 -32 0
-27 -29 -33 0
-27 -30 -31 0
-27 -30 -32 0
-27 -30 -33 0
-27 -31 -32 0
-27 -31 -33 0
-27 -32 -33 0
-28 -29 -30 0
-28 -29 -31 0
-28 -29 -32 0
-28 -29 -33 0
-28 -30 -31 0
-28 -30 -32 0
-28 -30 -33 0
-28 -31 -32 0
-28 -31 -33 0
-28 -32 -33 0
-29 -30 -31 0
-29 -30 -32 0
-29 -30 -33 0
-29 -31 -32 0
-29 -31 -33 0
-29 -32 -33 0
-30 -31 -32 0
-30 -31 -33 0
-30 -32 -33 0
-31 -32 -33 0
-34 -35 -36 0
-34 -35 -37 0
-34 -35 -38 0
-34 -35 -39 0
-34 -35 -40 0
-34 -35 -41 0
-34 -35 -42 0
-34 -35 -43 0
-34 -35 -44 0
-34 -36 -37 0
-34 -36 -38 0
-34 -36 -39 0
-34 -36 -40 0
-34 -36 -41 0
-34 -36 -42 0
-34 -36 -43 0
-34 -36 -44 0
-34 -37 -38 0
-34 -37 -39 0
-34 -37 -40 0
-34 -37 -41 0
-34 -37 -42 0
-34 -37 -43 0
-34 -37 -44 0
-34 -38 -39 0
-34 -38 -40 0
-34 -38 -41 0
-34 -38 -42 0
-34 -38 -43 0
-34 -38 -44 0
-34 -39 -40 0
-34 -39 -41 0
-34 -39 -42 0
-34 -39 -43 0
-34 -39 -44 0
-34 -40 -41 0
-34 -40 -42 0
-34 -40 -43 0
-34 -40 -44 0
-34 -41 -42 0
-34 -41 -43 0
-34 -41 -44 0
-34 -42 -43 0
-34 -42 -44 0
-34 -43 -44 0
-35 -36 -37 0
-35 -36 -38 0
-35 -36 -39 0
-35 -36 -40 0
-35 -36 -41 0
-35 -36 -42 0
-35 -36 -43 0
-35 -36 -44 0
-35 -37 -38 0
-35 -37 -39 0
-35 -37 -40 0
-35 -37 -41 0
-35 -37 -42 0
-35 -37 -43 0
-35 -37 -44 0
-35 -38 -39 0
-35 -38 -40 0
-35 -38 -41 0
-35 -38 -42 0
-35 -38 -43 0
-35 -38 -44 0
-35 -39 -40 0
-35 -39 -41 0
-35 -39 -42 0
-35 -39 -43 0
-35 -39 -44 0
-35 -40 -41 0
-35 -40 -42 0
-35 -40 -43 0
-35 -40 -44 0
-35 -41 -42 0
-35 -41 -43 0
-35 -41 -44 0
-35 -42 -43 0
-35 -42 -44 0
-35 -43 -44 0
-36 -37 -38 0
-36 -37 -39 0
-36 -37 -40 0
-36 -37 -41 0
-36 -37 -42 0
-36 -37 -43 0
-36 -37 -44 0
-36 -38 -39 0
-36 -38 -40 0
-36 -38 -41 0
-36 -38 -42 0
-36 -38 -43 0
-36 -38 -44 0
-36 -39 -40 0
-36 -39 -41 0
-36 -39 -42 0
-36 -39 -43 0
-36 -39 -44 0
-36 -40 -41 0
-36 -40 -42 0
-36 -40 -43 0
-36 -40 -44 0
-36 -41 -42 0
-36 -41 -43 0
-36 -41 -44 0
-36 -42 -43 0
-36 -42 -44 0
-36 -43 -44 0
-37 -38 -39 0
-37 -38 -40 0
-37 -38 -41 0
-37 -38 -42 0
-37 -38 -43 0
-37 -38 -44 0
-37 -39 -40 0
-37 -39 -41 0
-37 -39 -42 0
-37 -39 -43 0
-37 -39 -44 0
-37 -40 -41 0
-37 -40 -42 0
-37 -40 -43 0
-37 -40 -44 0
-37 -41 -42 0
-37 -41 -43 0
-37 -41 -44 0
-37 -42 -43 0
-37 -42 -44 0
-37 -43 -44 0
-38 -39 -40 0
-38 -39 -41 0
-38 -39 -42 0
-38 -39 -43 0
-38 -39 -44 0
-38 -40 -41 0
-38 -40 -42 0
-38 -40 -43 0
-38 -40 -44 0
-38 -41 -42 0
-38 -41 -43 0
-38 -41 -44 0
-38 -42 -43 0
-38 -42 -44 0
-38 -43 -44 0
-39 -40 -41 0
-39 -40 -42 0
-39 -40 -43 0
-39 -40 -44 0
-39 -41 -42 0
-39 -41 -43 0
-39 -41 -44 0
-39 -42 -43 0
-39 -42 -44 0
-39 -43 -44 0
-40 -41 -42 0
-40 -41 -43 0
-40 -41 -44 0
-40 -42 -43 0
-40 -42 -44 0
-40 -43 -44 0
-41 -42 -43 0
-41 -42 -44 0
-41 -43 -44 0
-42 -43 -44 0
-45 -46 -47 0
-45 -46 -48 0
-45 -46 -49 0
-45 -46 -50 0
-45 -46 -51 0
-45 -46 -52 0
-45 -46 -53 0
-45 -46 -54 0
-45 -46 -55 0
-45 -47 -48 0
-45 -47 -49 0
-45 -47 -50 0
-45 -47 -51 0
-45 -47 -52 0
-45 -47 -53 0
-45 -47 -54 0
-45 -47 -55 0
-45 -48 -49 0
-45 -48 -50 0
-45 -48 -51 0
-45 -48 -52 0
-45 -48 -53 0
-45 -48 -54 0
-45 -48 -55 0
-45 -49 -50 0
-45 -49 -51 0
-45 -49 -52 0
-45 -49 -53 0
-45 -49 -54 0
-45 -49 -55 0
-45 -50 -51 0
-45 -50 -52 0
-45 -50 -53 0
-45 -50 -54 0
-45 -50 -55 0
-45 -51 -52 0
-45 -51 -53 0
-45 -51 -54 0
-45 -51 -55 0
-45 -52 -53 0
-45 -52 -54 0
-45 -52 -55 0
-45 -53 -54 0
-45 -53 -55 0
-45 -54 -55 0
-46 -47 -48 0
-46 -47 -49 0
-46 -47 -50 0
-46 -47 -51 0
-46 -47 -52 0
-46 -47 -53 0
-46 -47 -54 0
-46 -47 -55 0
-46 -48 -49 0
-46 -48 -50 0
-46 -48 -51 0
-46 -48 -52 0
-46 -48 -53 0
-46 -48 -54 0
-46 -48 -55 0
-46 -49 -50 0
-46 -49 -51 0
-46 -49 -52 0
-46 -49 -53 0
-46 -49 -54 0
-46 -49 -55 0
-46 -50 -51 0
-46 -50 -52 0
-46 -50 -53 0
-46 -50 -54 0
-46 -50 -55 0
-46 -51 -52 0
-46 -51 -53 0
-46 -51 -54 0
-46 -51 -55 0
-46 -52 -53 0
-46 -52 -54 0
-46 -52 -55 0
-46 -53 -54 0
-46 -53 -55 0
-46 -54 -55 0
-47 -48 -49 0
-47 -48 -50 0
-47 -48 -51 0
-47 -48 -52 0
-47 -48 -53 0
-47 -48 -54 0
-47 -48 -55 0
-47 -49 -50 0
-47 -49 -51 0
-47 -49 -52 0
-47 -49 -53 0
-47 -49 -54 0
-47 -49 -55 0
-47 -50 -51 0
-47 -50 -52 0
-47 -50 -53 0
-47 -50 -54 0
-47 -50 -55 0
-47 -51 -52 0
-47 -51 -53 0
-47 -51 -54 0
-47 -51 -55 0
-47 -52 -53 0
-47 -52 -54 0
-47 -52 -55 0
-47 -53 -54 0
-47 -53 -55 0
-47 -54 -55 0
-48 -49 -50 0
-48 -49 -51 0
-48 -49 -52 0
-48 -49 -53 0
-48 -49 -54 0
-48 -49 -55 0
-48 -50 -51 0
-48 -50 -52 0
-48 -50 -53 0
-48 -50 -54 0
-48 -50 -55 0
-48 -51 -52 0
-48 -51 -53 0
-48 -51 -54 0
-48 -51 -55 0
-48 -52 -53 0
-48 -52 -54 0
-48 -52 -55 0
-48 -53 -54 0
-48 -53 -55 0
-48 -54 -55 0
-49 -50 -51 0
-49 -50 -52 0
-49 -50 -53 0
-49 -50 -54 0
-49 -50 -55 0
-49 -51 -52 0
-49 -51 -53 0
-49 -51 -54 0
-49 -51 -55 0
-49 -52 -53 0
-49 -52 -54 0
-49 -52 -55 0
-49 -53 -54 0
-49 -53 -55 0
-49 -54 -55 0
-50 -51 -52 0
-50 -51 -53 0
-50 -51 -54 0
-50 -51 -55 0
-50 -52 -53 0
-50 -52 -54 0
-50 -52 -55 0
-50 -53 -54 0
-50 -53 -55 0
-50 -54 -55 0
-51 -52 -53 0
-51 -52 -54 0
-51 -52 -55 0
-51 -53 -54 0
-51 -53 -55 0
-51 -54 -55 0
-52 -53 -54 0
-52 -53 -55 0
-52 -54 -55 0
-53 -54 -55 0
1 12 23 34 45 0
2 13 24 35 46 0
3 14 25 36 47 0
4 15 26 37 48 0
5 16 27 38 49 0
6 17 28 39 50 0
7 18 29 40 51 0
8 19 30 41 52 0
9 20 31 42 53 0
10 21 32 43 54 0
11 22 33 44 55 0
